39743.51 1
355 401 403 402 356 412 411 410 424 425 382 383 384 409 408 407 406 405 404 400 399 398 397 385 386 387 388 389 390 392 391 393 394 395 396 371 372 370 369 368 367 365 364 346 345 344 339 338 337 336 335 283 284 285 286 287 280 281 282 279 278 277 276 290 289 288 334 333 332 331 330 340 341 343 342 366 329 328 327 326 325 324 323 322 373 374 375 376 377 378 379 380 381 447 448 449 446 442 445 444 443 439 440 441 450 451 311 312 313 310 309 308 505 504 503 502 498 501 500 499 453 452 461 462 463 460 459 458 571 572 573 0 5 6 7 8 17 18 19 20 21 24 25 26 27 28 29 30 32 33 34 35 557 556 552 553 554 555 91 50 51 84 85 86 87 90 92 93 94 97 95 96 98 99 100 102 101 551 550 559 558 560 561 562 563 565 566 567 568 569 570 474 473 472 471 470 469 468 467 466 465 464 496 497 519 518 495 494 524 525 526 523 522 521 520 517 514 515 516 509 510 511 513 512 527 528 529 530 531 532 533 231 230 229 228 227 189 225 226 190 191 192 186 188 187 178 177 176 540 538 539 537 536 484 485 486 487 535 534 488 489 490 491 492 493 483 482 481 480 479 478 477 476 475 564 549 548 546 545 544 541 543 547 103 104 105 106 118 119 120 121 122 123 117 126 116 115 114 112 113 161 162 168 111 110 109 107 542 108 173 174 175 172 170 171 169 180 181 179 182 183 185 184 197 196 195 194 193 219 218 220 221 222 224 223 232 233 234 235 236 237 240 243 244 242 241 248 256 257 259 258 299 300 301 302 508 507 506 307 303 304 306 305 316 314 315 317 318 319 320 321 297 296 295 294 293 291 292 275 274 273 272 271 268 269 270 267 298 266 265 264 263 262 261 260 255 253 254 252 251 250 249 247 245 239 238 246 216 217 215 214 213 212 211 210 209 208 207 206 205 198 199 200 201 166 167 163 164 165 202 204 203 147 148 152 149 150 151 141 142 143 144 145 146 153 155 154 160 159 156 157 158 134 135 136 140 139 138 137 133 132 131 130 129 128 127 125 124 69 70 68 67 66 65 71 72 73 74 75 89 88 78 77 76 64 62 63 60 61 79 80 81 59 58 57 82 83 56 55 53 52 54 49 48 47 46 45 44 43 42 39 41 40 38 37 36 31 22 23 12 13 14 15 16 11 10 9 4 3 2 1 457 456 455 454 438 437 436 435 434 433 432 431 430 429 428 427 426 423 422 421 420 419 418 417 413 414 416 415 352 351 350 349 348 347 362 363 361 360 359 358 357 354 353